# opt b3lyp/6-311++g(d,p)

[No Title]

0 1
 C                  3.17080100    6.94808800    5.94091500
 O                  2.11750000    7.52297300    5.80189500
 N                  5.40787400    6.89699600    7.02792800
 C                  4.24819600    7.52994100    6.87486800
 C                  3.99314400    8.79345500    7.60211100
 C                  2.60292800    9.30876600    7.25385600
 S                  2.28997300   10.85913200    8.14620300
 C                  0.62343100   11.07791100    7.45872200
 O                  3.40138200    5.80580300    5.28344800
 C                  1.70755100   10.03276800    9.65476600
 C                  6.36563500    7.41424200    7.85817600
 O                  7.41893700    6.83935700    7.99719600
 C                  6.10558600    8.70251300    8.59966900
 C                  4.67974200    5.32375200    5.59813200
 H                  5.58227400    6.03302600    6.53065100
 H                  4.05624300    8.60938200    8.69796900
 H                  4.75382700    9.55076300    7.30780700
 H                  2.53982900    9.49283900    6.15799800
 H                  1.84224500    8.55145800    7.54816000
 H                  0.17356100   12.01138900    7.86492900
 H                  0.68655300   11.14917700    6.34980100
 H                 -0.01090700   10.20768400    7.73994900
 H                  1.43238200   10.79782700   10.41485700
 H                  2.51723300    9.38431400   10.05811500
 H                  0.81651900    9.41000600    9.41602200
 H                  5.08962400    9.07910000    8.34516600
 H                  6.16868500    8.51844100    9.69552700
 H                  6.86626900    9.45982200    8.30536500
 H                  4.86449300    4.37401900    5.04800200
 H                  5.44315700    6.07773100    5.30235900
 H                  4.74639000    5.13691400    6.69331200

