# opt b3lyp/6-311++g(d,p) sp test

[No Title]

0 1
 C                  2.19663000   10.79140000    7.44501600
 O                  1.14332800   11.36628600    7.30599600
 N                  2.76688400   12.59367600    8.95066000
 C                  3.25233600   11.36154100    8.36016900
 C                  3.56233100   10.35839400    9.46340400
 C                  5.03433300    9.97261500    9.40083100
 S                  5.40396600    8.77647900   10.71631000
 C                  7.15790500    8.62256200   10.27149100
 O                  2.42721000    9.64911600    6.78754900
 C                  5.69491100   10.04858500   11.97922500
 C                  3.55819300   13.29377600    9.82120700
 O                  3.15376200   14.32027200   10.31314700
 C                  4.96392800   12.77271200   10.17334900
 C                  3.70557000    9.16706500    7.10223300
 H                  1.84311600   12.93608900    8.71925300
 H                  4.17662500   11.56928500    7.77595900
 H                  3.34114500   10.81637600   10.45340300
 H                  2.93464000    9.44969300    9.32543900
 H                  5.25551900    9.51463400    8.41083100
 H                  5.66202400   10.88131600    9.53879600
 H                  7.65469600    7.90476300   10.96194900
 H                  7.24368400    8.25066500    9.22597400
 H                  7.65005500    9.61743200   10.35388400
 H                  5.95594700    9.56058400   12.94487700
 H                  4.77322300   10.65869600   12.10971100
 H                  6.53346400   10.70580700   11.65726700
 H                  5.59975000   13.33524700   10.87283800
 H                  5.33220100   11.83798900    9.72539000
 H                  3.89032100    8.21733100    6.55210300
 H                  4.46898500    9.92104400    6.80646000
 H                  3.77221800    8.98022700    8.19741300

