# opt b3lyp/6-311++g(d,p)

[No Title]

0 1
 N                 -7.63047600   -7.00744300    4.18804200
 N                 -7.18606900   -5.79155900    3.79812900
 N                 -6.11273500   -5.67591000    3.36627600
 N                 -7.98972400   -4.71015100    3.91037000
 H                 -8.57206200   -7.10889600    4.56688600
 H                 -7.02416800   -7.82329800    4.10336300
 H                 -5.77679900   -4.75680300    3.07153400
 H                 -8.90496000   -4.35703600    4.19696600

