# opt b3lyp/6-311++g(d,p)

[No Title]

0 1
 C                  2.22043200    9.35799700    6.48683600
 O                  1.16713000    9.93288200    6.34781600
 N                  2.79202500   11.15687400    7.99085100
 C                  3.27613800    9.92813800    7.40198900
 C                  3.58613400    8.92499100    8.50522400
 C                  5.05813500    8.53921100    8.44265100
 S                  5.42776800    7.34307500    9.75813000
 C                  7.18170700    7.18915800    9.31331100
 O                  2.45101200    8.21571200    5.82936900
 C                  5.71871300    8.61518200   11.02104500
 C                  2.30791300   12.38560900    8.57971400
 O                  3.00616100   13.00337400    9.34788100
 C                  0.93047600   12.89618400    8.23466100
 C                  3.72937200    7.73366100    6.14405300
 H                  4.20042700   10.13588200    6.81777900
 H                  3.36494800    9.38297200    9.49522300
 H                  2.95844200    8.01629000    8.36725900
 H                  5.27932100    8.08123000    7.45265100
 H                  5.68582600    9.44791200    8.58061600
 H                  7.67849800    6.47135900   10.00376900
 H                  7.26748600    6.81726200    8.26779500
 H                  7.67385800    8.18402900    9.39570400
 H                  5.97974900    8.12718000   11.98669700
 H                  4.79702600    9.22529200   11.15153100
 H                  6.55726600    9.27240400   10.69908700
 H                  0.44401100   12.19740300    7.51784500
 H                  0.31724900   12.96280500    9.16109600
 H                  1.01416400   13.90443400    7.77076700
 H                  3.91412300    6.78392800    5.59392300
 H                  4.49278700    8.48764000    5.84828000
 H                  3.79602000    7.54682300    7.23923300

