# opt b3lyp/6-311++g(d,p)

[No Title]

0 1
 N                 -1.75754200    3.75095800    1.49344900
 N                 -1.66614700    3.17303300    0.38319000
 N                 -1.58356500    2.65082800   -0.62002400
 N                 -0.94603600    2.89329700    3.16192500
 H                 -1.35178900    3.32212800    2.32768700
 H                 -0.49891700    1.98450000    2.90463900
 H                 -0.22566800    3.53311400    3.56656000
 H                 -1.69826800    2.72388100    3.86724100

