# opt b3lyp/6-311++g(d,p)

[No Title]

0 1
 C                 -5.47591700   -7.52544600   -4.86166100
 O                 -6.34556900   -6.81495300   -5.30682100
 N                 -6.45200700   -9.26041700   -6.23187200
 C                 -5.38906500   -8.96995000   -5.28938500
 C                 -4.07919400   -9.21516700   -5.93320700
 C                 -4.02024400   -9.68501700   -7.33540700
 S                 -2.28602600   -9.89120900   -7.83323400
 C                 -2.69186800  -10.44373500   -9.51486000
 O                 -4.58968700   -7.03158800   -3.98934000
 C                 -2.07322300   -8.15163800   -8.30911600
 C                 -6.57363100  -10.51740700   -6.76040200
 O                 -7.45917100  -10.75939600   -7.54559100
 C                 -5.60149900  -11.60065800   -6.36214400
 C                 -3.68186400   -8.03168300   -3.61347600
 H                 -7.10396000   -8.53394300   -6.49896100
 H                 -5.49411200   -9.62768600   -4.39769100
 H                 -3.14945600   -9.04821000   -5.36954700
 H                 -4.54895600  -10.66060800   -7.42175000
 H                 -4.50983400   -8.93676300   -7.99811800
 H                 -1.75252700  -10.65223200  -10.07426800
 H                 -3.30528200  -11.37094700   -9.46223200
 H                 -3.26624400   -9.64705500  -10.03846300
 H                 -1.03419100   -7.99077300   -8.67422400
 H                 -2.26061800   -7.50043500   -7.42617300
 H                 -2.79408000   -7.89767200   -9.11821100
 H                 -4.86429800  -11.18984700   -5.63651300
 H                 -6.15698600  -12.44161600   -5.88992500
 H                 -5.06645600  -11.96930400   -7.26580200
 H                 -2.94816900   -7.61395000   -2.88824500
 H                 -4.23376700   -8.87358400   -3.13873900
 H                 -3.14323300   -8.40127300   -4.51461300

